20
2
20100
141 447
true
0.25
27 30 40 14 4 25 2 7 41 17 3 36 8 14 35 48 36 44 28 47
32 35 13 37 6 20 19 32 8 8 31 22 6 35 30 10 26 30 39 33
15 -23 -66 -21 84 -26 19 0 70 -89 -84 23 58 -37 -56 -34 27 -42 -15 47
0 40 0 33 0 0 -88 0 0 0 0 0 0 31 87 0 -15 -27 90 0
0 0 0 0 0 0 0 0 70 -58 0 74 0 0 0 0 83 0 0
0 0 0 50 -56 -44 0 0 0 -23 0 0 0 0 -74 -68 0 -79
0 0 0 -71 -14 0 0 0 0 0 57 50 0 0 0 0 10
0 0 0 0 0 -27 0 0 0 0 0 0 0 45 30 -42
0 0 63 0 0 21 0 -53 0 0 0 -65 -66 0 81
0 0 -62 0 14 0 0 4 -36 0 0 -67 0 0
0 80 0 0 0 46 0 -23 -12 51 0 0 55
0 71 0 0 0 0 0 0 0 0 0 0
0 -24 -27 0 45 0 27 0 0 0 0
0 0 0 0 0 0 0 -46 0 0
0 0 0 0 0 0 0 0 100
0 0 0 0 -39 -46 0 46
0 37 0 0 0 0 -60
0 -35 -48 0 0 0
0 0 20 0 0
0 0 0 0
0 0 -29
0 0
0 0 0 36 0 82 0 -58 0 0 0 0 0 0 0 0 0 0 -75
0 0 0 0 0 74 0 80 0 0 0 0 45 0 0 -8 0 0
0 0 0 0 0 0 54 0 0 0 0 0 0 0 0 0 0
0 -88 0 0 0 -66 0 55 75 0 0 0 0 0 0 -80
0 0 0 -25 0 0 0 0 0 0 0 0 0 0 0
0 0 0 0 0 0 0 0 0 6 0 0 0 0
0 0 0 -16 0 -56 0 0 5 0 -57 0 0
0 0 -95 2 0 -71 0 0 29 0 0 0
0 0 0 88 0 0 -2 0 0 -13 0
0 0 0 0 0 0 0 0 0 0
0 0 0 0 0 0 2 95 0
0 0 0 84 -93 0 0 94
0 0 15 0 0 65 0
0 -53 0 0 0 0
0 9 0 100 93
0 -95 0 0
0 0 0
0 0
0
0 0 0 0 0 64 0 0 0 0 0 0 0 0 0 0 96 -68
0 -36 0 0 78 0 0 0 0 0 -70 0 58 0 -78 0 0
0 0 0 0 -27 0 0 0 31 62 -68 0 0 0 0 -70
0 0 76 0 -46 0 0 0 0 -80 0 0 0 -49 0
0 0 0 0 0 0 0 0 0 0 0 0 0 0
0 0 4 0 81 0 -51 0 0 0 0 -43 50
0 0 0 0 0 83 0 -88 -57 0 0 0
0 63 -93 0 52 0 0 86 0 0 0
0 0 9 0 0 0 0 0 0 0
0 0 0 44 -9 0 0 0 -3
0 -56 0 47 0 0 95 -41
0 0 0 0 0 0 0
0 0 0 -85 0 -10
0 0 0 0 -42
0 0 0 0
0 0 0
0 0
0
0 0 -15 0 0 90 5 0 82 25 0 0 0 0 -62 0 0
0 0 -64 -73 0 0 -78 0 0 46 0 0 0 87 0 -80
0 0 -19 -95 0 0 0 0 0 0 60 0 0 0 -78
0 0 16 0 0 23 0 -45 -26 0 0 0 82 0
0 -59 -85 0 0 0 0 0 0 0 0 -54 0
0 0 -15 0 0 0 0 46 0 0 0 43
0 0 0 0 -1 -61 0 0 -58 0 0
0 0 0 0 0 0 0 0 0 74
0 -68 0 0 0 0 0 0 0
0 0 0 0 0 70 0 0
0 0 0 0 0 -22 13
0 0 0 0 47 71
0 0 81 72 0
0 0 0 96
0 0 0
0 0
0
0 0 0 0 65 0 0 0 0 0 43 0 0 96 0 0
0 0 77 0 0 0 0 0 43 0 0 0 -20 0 0
0 0 0 0 -31 0 0 0 0 0 0 0 0 -81
0 0 0 0 0 52 9 0 0 0 0 79 0
0 15 0 67 0 0 6 70 0 17 0 0
0 -89 0 0 0 0 0 67 0 0 -75
0 0 0 -31 0 0 0 0 -80 0
0 -7 0 -4 0 0 0 0 0
0 0 0 0 0 0 99 0
0 -37 0 0 0 0 91
0 0 0 59 0 0
0 36 -74 28 0
0 -80 0 0
0 0 72
0 0
0
0 0 0 0 0 0 0 0 45 0 0 0 0 84 67
0 0 0 64 -70 0 0 0 0 0 0 0 0 0
0 0 0 -19 0 0 0 0 0 0 0 0 0
0 0 0 -50 0 0 0 0 0 0 0 0
0 0 0 0 0 0 0 0 0 0 0
0 15 0 64 21 0 0 0 -10 0
0 0 -87 0 0 0 -8 0 -27
0 0 0 0 0 0 0 0
0 0 0 -61 0 0 0
0 0 -42 0 0 0
0 44 0 -22 0
0 0 0 0
0 0 0
0 0
0
0 0 0 -82 0 97 84 0 0 0 0 0 0 0
0 0 0 0 0 0 0 0 0 78 0 0 0
0 0 0 0 0 0 0 0 0 0 -8 -48
0 0 0 0 0 -83 -21 0 0 0 0
0 0 0 100 0 0 0 0 0 -59
0 0 -90 0 0 0 0 0 -76
0 44 -82 0 0 34 0 0
0 0 0 0 43 0 88
0 0 0 0 70 0
0 -99 -82 -17 0
0 0 0 0
0 0 0
0 0
0
0 0 0 0 -85 -71 0 0 0 0 0 94 0
0 0 0 83 0 0 0 90 0 0 0 0
0 -27 33 0 0 78 0 0 0 0 0
0 -32 0 0 51 -29 0 67 0 0
0 0 0 68 0 0 39 0 0
0 0 0 0 0 0 44 0
0 0 -21 -71 -35 44 0
0 0 0 0 8 0
0 0 43 0 0
0 0 0 0
0 79 0
0 0
0
0 0 0 0 0 -58 -67 0 11 0 0 0
0 -30 0 0 0 0 -82 0 0 -96 0
0 54 67 0 0 -7 0 0 -17 21
0 -89 0 -4 0 0 0 -58 -6
0 80 0 0 0 0 0 27
0 0 0 0 0 0 0
0 28 -35 0 0 0
0 6 0 0 58
0 0 0 0
0 0 82
0 -64
0
0 0 0 0 0 0 0 -27 0 -92 0
0 0 0 0 0 -29 0 0 0 0
0 -41 0 0 0 0 -88 0 0
0 0 91 0 -68 -22 0 0
0 -57 0 0 0 0 0
0 80 0 0 0 0
0 -52 0 0 1
0 -91 0 0
0 -74 0
0 0
0
0 0 0 0 -25 0 0 8 0 0
0 0 0 0 0 0 0 0 0
0 0 83 36 35 0 0 -11
0 0 0 0 0 0 17
0 0 0 0 0 0
0 0 0 0 24
0 0 0 0
0 0 0
0 0
0
0 0 0 0 0 0 0 0 0
0 37 0 80 0 0 0 0
0 -19 0 0 0 0 0
0 0 0 0 0 0
0 0 0 -90 0
0 0 0 0
0 0 0
0 0
0
0 0 0 0 0 0 0 0
0 0 -75 0 0 0 0
0 -94 -36 87 27 -96
0 0 0 0 0
0 0 0 -98
0 -98 0
0 0
0
0 0 0 0 -18 0 0
0 0 -63 0 0 0
0 0 0 0 0
0 0 0 0
0 89 0
0 0
0
0 0 0 0 10 0
0 61 0 0 37
0 -64 0 0
0 0 -59
0 -97
0
0 0 0 0 33
0 0 0 0
0 0 0
0 -56
0
0 0 0 0
0 0 0
0 0
0
0 -46 0
0 0
0
0 0
0
0
403 80 -6 657 -36 -167 162 156 -398 -227 -344 -395 900 30 -157 409 -783 -490 406 -119
13.759837962962962 2.4761904761904763 -0.3057692307692308 32.342664092664094 -7.5 -7.515 44.76315789473684 13.580357142857142 -29.728658536585364 -20.863970588235293 -62.88172043010753 -14.463383838383837 131.25 1.5 -4.859523809523809 24.710416666666667 -25.932692307692307 -13.734848484848484 12.455128205128204 -3.0689877498388136
